1370
0	144	238	332	504	583	672	812	911	997
0	119	169	257	332	478	544	636	718	812
0	83	178	291	398	462	547	626	752	833
0	94	230	332	431	485	560	636	749	904
0	88	176	258	353	516	583	678	911	978
0	176	257	332	398	672	978	1047	1109	1196
94	144	431	528	712	807	904	1049	1148	1206
528	678	751	833	884	955	1049	1134	1196	1291
0	94	169	250	356	426	711	787	971	1109
69	119	422	544	625	875	971	1029	1148	1207
